100 8
260 564
583 288
695 854
363 660
438 235
539 678
696 625
213 441
611 460
201 68
826 590
667 270
308 748
592 787
266 673
870 599
868 613
411 205
290 207
747 370
336 321
843 678
258 287
298 293
496 107
833 740
783 503
588 419
809 833
420 173
291 595
727 658
447 190
327 214
191 151
225 565
544 297
629 784
594 797
389 161
336 48
935 585
784 480
234 139
524 109
329 567
328 243
625 730
225 812
330 58
790 674
468 120
336 718
730 833
295 729
811 549
725 541
439 204
696 406
332 698
652 701
750 824
571 756
635 730
226 790
496 762
689 538
298 734
771 487
576 747
157 736
437 203
311 835
539 828
539 684
484 132
384 264
685 676
359 203
304 107
713 462
503 183
368 264
319 171
804 921
264 156
489 865
275 728
832 558
449 322
705 646
947 502
198 737
533 863
782 625
464 35
266 818
517 96
248 251
701 534
